n_res = 4;
rcap = [23, 23, 67, 71];
rtype = [1, 1, 2, 2];
n_tasks = 12;
modes = [ {1, 2, 3}, {4, 5, 6}, {7, 8, 9}, {10, 11, 12}, {13, 14, 15}, {16, 17, 18}, {19, 20, 21}, {22, 23, 24}, {25, 26, 27}, {28, 29, 30}, {31, 32, 33}, {34, 35, 36} ];
succ = [ {6, 7}, {4, 8, 9}, {4, 5, 6}, {10, 11, 12}, {7}, {9, 10}, {8, 9, 10}, {11}, {11, 12}, {}, {}, {} ];
n_opt = 36;
dur = [7, 7, 8, 4, 8, 8, 3, 5, 6, 1, 4, 9, 3, 9, 10, 5, 10, 10, 6, 10, 10, 3, 5, 10, 2, 3, 9, 5, 9, 10, 1, 3, 8, 3, 8, 10];
rreq = [|  5,  5,  2,  8,  5,  1, 10,  6,  5,  7,  7,  7,  8,  7,  2,  9,  4,  2, 10,  7,  6,  7,  6,  6, 10,  6,  4,  6,  6,  4,  7,  7,  4,  8,  8,  7
        | 10, 10,  9,  5,  1,  2,  4,  4,  3,  5,  3,  2,  8,  3,  1, 10, 10, 10,  9,  9,  9,  5,  3,  1,  8,  5,  5, 10,  9,  9,  6,  5,  5,  6,  5,  5
        |  0,  7,  0,  0,  0,  8,  0,  0,  7,  0,  0,  4,  5,  0,  5,  7,  0,  5,  4,  0,  2,  0,  0,  0,  6,  6,  5,  0,  9,  9,  0,  7,  4,  0,  0,  3
        |  9,  0,  6,  9,  6,  0,  7,  5,  0,  7,  4,  0,  0,  5,  0,  0,  6,  0,  0,  4,  0,  7,  6,  3,  0,  0,  0,  2,  0,  0,  9,  0,  0,  6,  1,  0 |];
